Cost: 1477
0-35-33-29-28-27-20-13-36-21-22-23-26-30-31-32-0
0-15-7-5-8-37-9-10-12-11-14-16-0
0-2-3-38-19-18-17-1-0
Cost: 1477
0-35-33-29-28-27-20-13-36-21-22-23-26-30-31-32-0
0-15-7-5-8-37-9-10-12-11-14-16-0
0-2-3-38-19-18-17-1-0
Cost: 1477
0-35-33-29-28-27-20-13-36-21-22-23-26-30-31-32-0
0-15-7-5-8-37-9-10-12-11-14-16-0
0-2-3-38-19-18-17-1-0
Cost: 1477
0-35-33-29-28-27-20-13-36-21-22-23-26-30-31-32-0
0-15-7-5-8-37-9-10-12-11-14-16-0
0-2-3-38-19-18-17-1-0
Cost: 1477
0-35-33-29-28-27-20-13-36-21-22-23-26-30-31-32-0
0-15-7-5-8-37-9-10-12-11-14-16-0
0-2-3-38-19-18-17-1-0
Cost: 1477
0-35-33-29-28-27-20-13-36-21-22-23-26-30-31-32-0
0-15-7-5-8-37-9-10-12-11-14-16-0
0-2-3-38-19-18-17-1-0
Cost: 1477
0-35-33-29-28-27-20-13-36-21-22-23-26-30-31-32-0
0-15-7-5-8-37-9-10-12-11-14-16-0
0-2-3-38-19-18-17-1-0
Cost: 1477
0-35-33-29-28-27-20-13-36-21-22-23-26-30-31-32-0
0-15-7-5-8-37-9-10-12-11-14-16-0
0-2-3-38-19-18-17-1-0
Cost: 1477
0-35-33-29-28-27-20-13-36-21-22-23-26-30-31-32-0
0-15-7-5-8-37-9-10-12-11-14-16-0
0-2-3-38-19-18-17-1-0
Cost: 1477
0-35-33-29-28-27-20-13-36-21-22-23-26-30-31-32-0
0-15-7-5-8-37-9-10-12-11-14-16-0
0-2-3-38-19-18-17-1-0
Cost: 1477
0-35-33-29-28-27-20-13-36-21-22-23-26-30-31-32-0
0-15-7-5-8-37-9-10-12-11-14-16-0
0-2-3-38-19-18-17-1-0
Cost: 1477
0-35-33-29-28-27-20-13-36-21-22-23-26-30-31-32-0
0-2-3-38-17-18-19-1-0
0-15-7-5-8-37-9-10-12-11-14-16-0
Cost: 1477
0-35-33-29-28-27-20-13-36-21-22-23-26-30-31-32-0
0-2-3-38-17-18-19-1-0
0-15-7-5-8-37-9-10-12-11-14-16-0
Cost: 1477
0-35-33-29-28-27-20-13-36-21-22-23-26-30-31-32-0
0-2-3-38-17-18-19-1-0
0-15-7-5-8-37-9-10-12-11-14-16-0
Cost: 1477
0-35-33-29-28-27-20-13-36-21-22-23-26-30-31-32-0
0-2-3-38-17-18-19-1-0
0-15-7-5-8-37-9-10-12-11-14-16-0
Cost: 1477
0-35-33-29-28-27-20-13-36-21-22-23-26-30-31-32-0
0-2-3-38-17-18-19-1-0
0-15-7-5-8-37-9-10-12-11-14-16-0
Cost: 1477
0-35-33-29-28-27-20-13-36-21-22-23-26-30-31-32-0
0-2-3-38-17-18-19-1-0
0-15-7-5-8-37-9-10-12-11-14-16-0
Cost: 1477
0-2-3-38-17-18-19-1-0
0-35-33-29-28-27-20-13-36-21-22-23-26-30-31-32-0
0-15-7-5-8-37-9-10-12-11-14-16-0
Cost: 1477
0-35-33-29-28-27-20-13-36-21-22-23-26-30-31-32-0
0-2-3-38-17-18-19-1-0
0-15-7-5-8-37-9-10-12-11-14-16-0
Cost: 1477
0-35-33-29-28-27-20-13-36-21-22-23-26-30-31-32-0
0-2-3-38-17-18-19-1-0
0-15-7-5-8-37-9-10-12-11-14-16-0
Cost: 1477
0-35-33-29-28-27-20-13-36-21-22-23-26-30-31-32-0
0-2-3-38-17-18-19-1-0
0-15-7-5-8-37-9-10-12-11-14-16-0
Cost: 1477
0-35-33-29-28-27-20-13-36-21-22-23-26-30-31-32-0
0-2-3-38-17-18-19-1-0
0-15-7-5-8-37-9-10-12-11-14-16-0
Cost: 1477
0-35-33-29-28-27-20-13-36-21-22-23-26-30-31-32-0
0-2-3-38-17-18-19-1-0
0-15-7-5-8-37-9-10-12-11-14-16-0
Cost: 1477
0-35-33-29-28-27-20-13-36-21-22-23-26-30-31-32-0
0-2-3-38-17-18-19-1-0
0-15-7-5-8-37-9-10-12-11-14-16-0
Cost: 1477
0-35-33-29-28-27-20-13-36-21-22-23-26-30-31-32-0
0-2-3-38-17-18-19-1-0
0-15-7-5-8-37-9-10-12-11-14-16-0
Cost: 1477
0-2-3-38-17-18-19-1-0
0-15-5-7-8-37-9-10-12-11-14-16-0
0-35-33-29-28-27-20-13-36-21-22-23-26-30-31-32-0
Cost: 1477
0-35-33-29-28-27-20-13-36-21-22-23-26-30-31-32-0
0-2-3-38-17-18-19-1-0
0-15-7-5-8-37-9-10-12-11-14-16-0
Cost: 1477
0-35-33-29-28-27-20-13-36-21-22-23-26-30-31-32-0
0-2-3-38-17-18-19-1-0
0-15-7-5-8-37-9-10-12-11-14-16-0
Cost: 1477
0-35-33-29-28-27-20-13-36-21-22-23-26-30-31-32-0
0-2-3-38-17-18-19-1-0
0-15-7-5-8-37-9-10-12-11-14-16-0
Cost: 1477
0-35-33-29-28-27-20-13-36-21-22-23-26-30-31-32-0
0-2-3-38-17-18-19-1-0
0-15-7-5-8-37-9-10-12-11-14-16-0
Cost: 1477
0-15-7-5-8-37-9-10-12-11-14-16-38-0
0-2-3-17-18-19-1-0
0-35-33-29-28-27-20-13-36-21-22-23-26-30-31-32-0
Cost: 1477
0-15-5-7-8-37-9-10-12-11-14-16-0
0-35-33-29-28-27-20-13-36-21-22-23-26-30-31-32-0
0-2-3-38-17-18-19-1-0
Cost: 1477
0-35-33-29-28-27-20-13-36-21-22-23-26-30-31-32-0
0-15-7-5-8-37-9-10-12-11-14-16-38-0
0-2-3-17-18-19-1-0
Cost: 1477
0-35-33-29-28-27-20-13-36-21-22-23-26-30-31-32-0
0-15-5-7-8-37-9-10-12-11-14-16-38-0
0-2-3-17-18-19-1-0
Cost: 1477
0-15-5-7-8-37-9-10-12-11-14-16-38-0
0-2-3-19-17-18-1-0
0-35-33-29-28-27-20-13-36-21-22-23-26-30-31-32-0
